p cnf 124 319
c node "figure2-0-0" must have at least one color
1 2 3 4 0
c node "figure2-0-1" must have at least one color
5 6 7 8 0
c node "figure2-0-2" must have at least one color
9 10 11 12 0
c node "figure2-0-3" must have at least one color
13 14 15 16 0
c node "figure2-0-4" must have at least one color
17 18 19 20 0
c node "figure2-0-5" must have at least one color
21 22 23 24 0
c node "figure2-0-6" must have at least one color
25 26 27 28 0
c node "figure2-1-1" must have at least one color
29 30 31 32 0
c node "figure2-1-2" must have at least one color
33 34 35 36 0
c node "figure2-1-6" must have at least one color
37 38 39 40 0
c node "figure2-2-2" must have at least one color
41 42 43 44 0
c node "figure2-2-3" must have at least one color
45 46 47 48 0
c node "figure2-3-3" must have at least one color
49 50 51 52 0
c node "figure2-3-4" must have at least one color
53 54 55 56 0
c node "figure2-4-4" must have at least one color
57 58 59 60 0
c node "figure2-4-5" must have at least one color
61 62 63 64 0
c node "figure2-5-5" must have at least one color
65 66 67 68 0
c node "figure2-5-6" must have at least one color
69 70 71 72 0
c node "figure2-6-6" must have at least one color
73 74 75 76 0
c node "figure2-7-1" must have at least one color
77 78 79 80 0
c node "figure2-7-2" must have at least one color
81 82 83 84 0
c node "figure2-8-2" must have at least one color
85 86 87 88 0
c node "figure2-8-3" must have at least one color
89 90 91 92 0
c node "figure2-9-3" must have at least one color
93 94 95 96 0
c node "figure2-9-4" must have at least one color
97 98 99 100 0
c node "figure2-10-4" must have at least one color
101 102 103 104 0
c node "figure2-10-5" must have at least one color
105 106 107 108 0
c node "figure2-11-5" must have at least one color
109 110 111 112 0
c node "figure2-11-6" must have at least one color
113 114 115 116 0
c node "figure2-12-1" must have at least one color
117 118 119 120 0
c node "figure2-12-6" must have at least one color
121 122 123 124 0
c nodes "figure2-0-0" and "figure2-0-1" may not have the same color
-1 -5 0
-2 -6 0
-3 -7 0
-4 -8 0
c nodes "figure2-0-0" and "figure2-0-2" may not have the same color
-1 -9 0
-2 -10 0
-3 -11 0
-4 -12 0
c nodes "figure2-0-0" and "figure2-0-3" may not have the same color
-1 -13 0
-2 -14 0
-3 -15 0
-4 -16 0
c nodes "figure2-0-0" and "figure2-0-4" may not have the same color
-1 -17 0
-2 -18 0
-3 -19 0
-4 -20 0
c nodes "figure2-0-0" and "figure2-0-5" may not have the same color
-1 -21 0
-2 -22 0
-3 -23 0
-4 -24 0
c nodes "figure2-0-0" and "figure2-0-6" may not have the same color
-1 -25 0
-2 -26 0
-3 -27 0
-4 -28 0
c nodes "figure2-0-1" and "figure2-0-2" may not have the same color
-5 -9 0
-6 -10 0
-7 -11 0
-8 -12 0
c nodes "figure2-0-1" and "figure2-0-6" may not have the same color
-5 -25 0
-6 -26 0
-7 -27 0
-8 -28 0
c nodes "figure2-0-1" and "figure2-1-1" may not have the same color
-5 -29 0
-6 -30 0
-7 -31 0
-8 -32 0
c nodes "figure2-0-1" and "figure2-1-2" may not have the same color
-5 -33 0
-6 -34 0
-7 -35 0
-8 -36 0
c nodes "figure2-0-1" and "figure2-1-6" may not have the same color
-5 -37 0
-6 -38 0
-7 -39 0
-8 -40 0
c nodes "figure2-0-2" and "figure2-0-3" may not have the same color
-9 -13 0
-10 -14 0
-11 -15 0
-12 -16 0
c nodes "figure2-0-2" and "figure2-1-2" may not have the same color
-9 -33 0
-10 -34 0
-11 -35 0
-12 -36 0
c nodes "figure2-0-2" and "figure2-2-2" may not have the same color
-9 -41 0
-10 -42 0
-11 -43 0
-12 -44 0
c nodes "figure2-0-2" and "figure2-2-3" may not have the same color
-9 -45 0
-10 -46 0
-11 -47 0
-12 -48 0
c nodes "figure2-0-3" and "figure2-0-4" may not have the same color
-13 -17 0
-14 -18 0
-15 -19 0
-16 -20 0
c nodes "figure2-0-3" and "figure2-2-3" may not have the same color
-13 -45 0
-14 -46 0
-15 -47 0
-16 -48 0
c nodes "figure2-0-3" and "figure2-3-3" may not have the same color
-13 -49 0
-14 -50 0
-15 -51 0
-16 -52 0
c nodes "figure2-0-3" and "figure2-3-4" may not have the same color
-13 -53 0
-14 -54 0
-15 -55 0
-16 -56 0
c nodes "figure2-0-4" and "figure2-0-5" may not have the same color
-17 -21 0
-18 -22 0
-19 -23 0
-20 -24 0
c nodes "figure2-0-4" and "figure2-3-4" may not have the same color
-17 -53 0
-18 -54 0
-19 -55 0
-20 -56 0
c nodes "figure2-0-4" and "figure2-4-4" may not have the same color
-17 -57 0
-18 -58 0
-19 -59 0
-20 -60 0
c nodes "figure2-0-4" and "figure2-4-5" may not have the same color
-17 -61 0
-18 -62 0
-19 -63 0
-20 -64 0
c nodes "figure2-0-5" and "figure2-0-6" may not have the same color
-21 -25 0
-22 -26 0
-23 -27 0
-24 -28 0
c nodes "figure2-0-5" and "figure2-4-5" may not have the same color
-21 -61 0
-22 -62 0
-23 -63 0
-24 -64 0
c nodes "figure2-0-5" and "figure2-5-5" may not have the same color
-21 -65 0
-22 -66 0
-23 -67 0
-24 -68 0
c nodes "figure2-0-5" and "figure2-5-6" may not have the same color
-21 -69 0
-22 -70 0
-23 -71 0
-24 -72 0
c nodes "figure2-0-6" and "figure2-1-6" may not have the same color
-25 -37 0
-26 -38 0
-27 -39 0
-28 -40 0
c nodes "figure2-0-6" and "figure2-5-6" may not have the same color
-25 -69 0
-26 -70 0
-27 -71 0
-28 -72 0
c nodes "figure2-0-6" and "figure2-6-6" may not have the same color
-25 -73 0
-26 -74 0
-27 -75 0
-28 -76 0
c nodes "figure2-1-1" and "figure2-1-2" may not have the same color
-29 -33 0
-30 -34 0
-31 -35 0
-32 -36 0
c nodes "figure2-1-1" and "figure2-1-6" may not have the same color
-29 -37 0
-30 -38 0
-31 -39 0
-32 -40 0
c nodes "figure2-1-1" and "figure2-7-1" may not have the same color
-29 -77 0
-30 -78 0
-31 -79 0
-32 -80 0
c nodes "figure2-1-1" and "figure2-12-1" may not have the same color
-29 -117 0
-30 -118 0
-31 -119 0
-32 -120 0
c nodes "figure2-1-2" and "figure2-2-2" may not have the same color
-33 -41 0
-34 -42 0
-35 -43 0
-36 -44 0
c nodes "figure2-1-2" and "figure2-7-1" may not have the same color
-33 -77 0
-34 -78 0
-35 -79 0
-36 -80 0
c nodes "figure2-1-2" and "figure2-7-2" may not have the same color
-33 -81 0
-34 -82 0
-35 -83 0
-36 -84 0
c nodes "figure2-1-6" and "figure2-6-6" may not have the same color
-37 -73 0
-38 -74 0
-39 -75 0
-40 -76 0
c nodes "figure2-1-6" and "figure2-12-1" may not have the same color
-37 -117 0
-38 -118 0
-39 -119 0
-40 -120 0
c nodes "figure2-1-6" and "figure2-12-6" may not have the same color
-37 -121 0
-38 -122 0
-39 -123 0
-40 -124 0
c nodes "figure2-2-2" and "figure2-2-3" may not have the same color
-41 -45 0
-42 -46 0
-43 -47 0
-44 -48 0
c nodes "figure2-2-2" and "figure2-7-2" may not have the same color
-41 -81 0
-42 -82 0
-43 -83 0
-44 -84 0
c nodes "figure2-2-2" and "figure2-8-2" may not have the same color
-41 -85 0
-42 -86 0
-43 -87 0
-44 -88 0
c nodes "figure2-2-3" and "figure2-3-3" may not have the same color
-45 -49 0
-46 -50 0
-47 -51 0
-48 -52 0
c nodes "figure2-2-3" and "figure2-8-2" may not have the same color
-45 -85 0
-46 -86 0
-47 -87 0
-48 -88 0
c nodes "figure2-2-3" and "figure2-8-3" may not have the same color
-45 -89 0
-46 -90 0
-47 -91 0
-48 -92 0
c nodes "figure2-3-3" and "figure2-3-4" may not have the same color
-49 -53 0
-50 -54 0
-51 -55 0
-52 -56 0
c nodes "figure2-3-3" and "figure2-8-3" may not have the same color
-49 -89 0
-50 -90 0
-51 -91 0
-52 -92 0
c nodes "figure2-3-3" and "figure2-9-3" may not have the same color
-49 -93 0
-50 -94 0
-51 -95 0
-52 -96 0
c nodes "figure2-3-4" and "figure2-4-4" may not have the same color
-53 -57 0
-54 -58 0
-55 -59 0
-56 -60 0
c nodes "figure2-3-4" and "figure2-9-3" may not have the same color
-53 -93 0
-54 -94 0
-55 -95 0
-56 -96 0
c nodes "figure2-3-4" and "figure2-9-4" may not have the same color
-53 -97 0
-54 -98 0
-55 -99 0
-56 -100 0
c nodes "figure2-4-4" and "figure2-4-5" may not have the same color
-57 -61 0
-58 -62 0
-59 -63 0
-60 -64 0
c nodes "figure2-4-4" and "figure2-9-4" may not have the same color
-57 -97 0
-58 -98 0
-59 -99 0
-60 -100 0
c nodes "figure2-4-4" and "figure2-10-4" may not have the same color
-57 -101 0
-58 -102 0
-59 -103 0
-60 -104 0
c nodes "figure2-4-5" and "figure2-5-5" may not have the same color
-61 -65 0
-62 -66 0
-63 -67 0
-64 -68 0
c nodes "figure2-4-5" and "figure2-10-4" may not have the same color
-61 -101 0
-62 -102 0
-63 -103 0
-64 -104 0
c nodes "figure2-4-5" and "figure2-10-5" may not have the same color
-61 -105 0
-62 -106 0
-63 -107 0
-64 -108 0
c nodes "figure2-5-5" and "figure2-5-6" may not have the same color
-65 -69 0
-66 -70 0
-67 -71 0
-68 -72 0
c nodes "figure2-5-5" and "figure2-10-5" may not have the same color
-65 -105 0
-66 -106 0
-67 -107 0
-68 -108 0
c nodes "figure2-5-5" and "figure2-11-5" may not have the same color
-65 -109 0
-66 -110 0
-67 -111 0
-68 -112 0
c nodes "figure2-5-6" and "figure2-6-6" may not have the same color
-69 -73 0
-70 -74 0
-71 -75 0
-72 -76 0
c nodes "figure2-5-6" and "figure2-11-5" may not have the same color
-69 -109 0
-70 -110 0
-71 -111 0
-72 -112 0
c nodes "figure2-5-6" and "figure2-11-6" may not have the same color
-69 -113 0
-70 -114 0
-71 -115 0
-72 -116 0
c nodes "figure2-6-6" and "figure2-11-6" may not have the same color
-73 -113 0
-74 -114 0
-75 -115 0
-76 -116 0
c nodes "figure2-6-6" and "figure2-12-6" may not have the same color
-73 -121 0
-74 -122 0
-75 -123 0
-76 -124 0
c nodes "figure2-7-1" and "figure2-7-2" may not have the same color
-77 -81 0
-78 -82 0
-79 -83 0
-80 -84 0
c nodes "figure2-8-2" and "figure2-8-3" may not have the same color
-85 -89 0
-86 -90 0
-87 -91 0
-88 -92 0
c nodes "figure2-9-3" and "figure2-9-4" may not have the same color
-93 -97 0
-94 -98 0
-95 -99 0
-96 -100 0
c nodes "figure2-10-4" and "figure2-10-5" may not have the same color
-101 -105 0
-102 -106 0
-103 -107 0
-104 -108 0
c nodes "figure2-11-5" and "figure2-11-6" may not have the same color
-109 -113 0
-110 -114 0
-111 -115 0
-112 -116 0
c nodes "figure2-12-1" and "figure2-12-6" may not have the same color
-117 -121 0
-118 -122 0
-119 -123 0
-120 -124 0